Version identifier: 22.1.1.0 | 2022-11-28 | 9160aff4d
CPXPARAM_ClockType                               1
CPXPARAM_Read_DataCheck                          1
CPXPARAM_Threads                                 1
CPXPARAM_TimeLimit                               7200
CPXPARAM_MIP_Tolerances_AbsMIPGap                0
CPXPARAM_MIP_Tolerances_MIPGap                   0
CPXPARAM_MIP_Tolerances_Integrality              0
Found incumbent of value 0.000000 after 0.03 sec. (15.48 ticks)
Tried aggregator 5 times.
MIP Presolve eliminated 33956 rows and 23748 columns.
MIP Presolve modified 11298 coefficients.
Aggregator did 10189 substitutions.
Reduced MIP has 54650 rows, 27743 columns, and 235440 nonzeros.
Reduced MIP has 27743 binaries, 0 generals, 0 SOSs, and 0 indicators.
Presolve time = 0.70 sec. (332.46 ticks)
Probing time = 0.06 sec. (10.40 ticks)
Tried aggregator 1 time.
Detecting symmetries...
Reduced MIP has 54650 rows, 27743 columns, and 235440 nonzeros.
Reduced MIP has 27743 binaries, 0 generals, 0 SOSs, and 0 indicators.
Presolve time = 0.33 sec. (137.23 ticks)
Probing time = 0.05 sec. (10.13 ticks)
Clique table members: 39264.
MIP emphasis: balance optimality and feasibility.
MIP search method: dynamic search.
Parallel mode: none, using 1 thread.
Root relaxation solution time = 190.47 sec. (52285.00 ticks)

        Nodes                                         Cuts/
   Node  Left     Objective  IInf  Best Integer    Best Bound    ItCnt     Gap

*     0+    0                            0.0000   152790.0000              --- 
      0     0    23150.0000  5814        0.0000    23150.0000    32888     --- 
      0     0    23091.5000  5775        0.0000    Cuts: 2299    96371     --- 
      0     0    23050.0000  6298        0.0000    Cuts: 2604   130129     --- 
      0     0    23040.8750  6423        0.0000    Cuts: 2285   182809     --- 
*     0+    0                          100.0000    23040.8750              --- 
*     0+    0                         1150.0000    23040.8750              --- 
      0     0        cutoff           1150.0000    23040.8750   182809     --- 
      0     0    23032.6250  6424     1150.0000    Cuts: 2392   242065     --- 
      0     0    23024.0000  6263     1150.0000    Cuts: 2645   272782     --- 
      0     0    23021.1667  6411     1150.0000    Cuts: 2391   307061     --- 
*     0+    0                         1650.0000    23021.1667              --- 
*     0+    0                         2975.0000    23021.1667           673.82%
*     0+    0                         3025.0000    23021.1667           661.03%
*     0+    0                         5175.0000    23021.1667           344.85%
      0     0        cutoff           5175.0000    23021.1667   307061  344.85%
      0     0    23016.7459  6502     5175.0000    Cuts: 2256   322355  344.77%
      0     0    23010.7503  6522     5175.0000    Cuts: 2007   346749  344.65%
      0     0    23003.7292  6391     5175.0000    Cuts: 2024   367863  344.52%
*     0+    0                         6925.0000    23003.7292           232.18%
*     0+    0                         8950.0000    23003.7292           157.02%
      0     0        cutoff           8950.0000    23003.7292   367863  157.02%
      0     0    22996.6778  6524     8950.0000    Cuts: 1902   383039  156.95%
      0     0    22991.4621  6350     8950.0000    Cuts: 1772   399487  156.89%
      0     0    22985.9842  6430     8950.0000    Cuts: 1995   423977  156.83%
*     0+    0                        10575.0000    22985.9842           117.36%
*     0+    0                        10625.0000    22985.9842           116.34%
*     0+    0                        11150.0000    22985.9842           106.15%
      0     0        cutoff          11150.0000    22985.9842   423977  106.15%
      0     0    22983.4213  6401    11150.0000    Cuts: 2124   454371  106.13%
      0     0    22981.6883  6317    11150.0000    Cuts: 2110   471565  106.11%
      0     0    22980.1667  6155    11150.0000    Cuts: 1792   494437  106.10%
*     0+    0                        12250.0000    22980.1667            87.59%
*     0+    0                        12673.0000    22980.1667            81.33%
      0     0        cutoff          12673.0000    22980.1667   494437   81.33%
      0     0    22976.4415  6244    12673.0000    Cuts: 1829   522620   81.30%
      0     0    22974.4970  6414    12673.0000    Cuts: 1598   541905   81.29%
      0     0    22972.0345  6487    12673.0000    Cuts: 1811   571203   81.27%
*     0+    0                        13347.0000    22972.0345            72.11%
*     0+    0                        13697.0000    22972.0345            67.72%
*     0+    0                        13747.0000    22972.0345            67.11%
      0     2    22972.0345  6480    13747.0000    22972.0345   571203   67.11%
Elapsed time = 3830.62 sec. (1155262.61 ticks, tree = 0.01 MB, solutions = 17)
      1     3    22971.0345  6316    13747.0000    22972.0345   623014   67.11%
      2     4    22971.0345  6208    13747.0000    22972.0345   647754   67.11%
      3     5    22971.0345  6195    13747.0000    22972.0345   672315   67.11%
      5     7    22971.0345  6212    13747.0000    22972.0345   672989   67.11%
      6     8    22970.6128  6187    13747.0000    22972.0345   695547   67.11%
      7     9    22970.4745  6383    13747.0000    22972.0345   714293   67.11%
      8    10    22970.6128  6201    13747.0000    22972.0345   715337   67.11%
      9    11    22970.5044  6135    13747.0000    22972.0345   728289   67.11%
     10    12    22970.5044  6189    13747.0000    22972.0345   728417   67.11%
     13    15    22970.5044  6140    13747.0000    22972.0345   729415   67.11%
Elapsed time = 4667.70 sec. (1405833.53 ticks, tree = 3.61 MB, solutions = 17)
     14    16    22970.5044  6181    13747.0000    22972.0345   732437   67.11%
     15    17    22970.4900  6089    13747.0000    22972.0345   739991   67.11%
     16    18    22970.3540  6266    13747.0000    22972.0345   755411   67.11%
     17    19    22970.4700  6053    13747.0000    22972.0345   764461   67.11%
     18    20    22970.4700  6048    13747.0000    22972.0345   770040   67.11%
     19    21    22970.4700  6039    13747.0000    22972.0345   773871   67.11%
     20    22    22970.3781  6132    13747.0000    22972.0345   794833   67.11%
     22    24    22970.3329  6045    13747.0000    22972.0345   815411   67.11%
     26    28    22967.3329  6055    13747.0000    22972.0345   816036   67.11%
     29    31    22969.3329  6009    13747.0000    22972.0345   816944   67.11%
Elapsed time = 4991.34 sec. (1528691.02 ticks, tree = 11.14 MB, solutions = 17)
     31    33    22969.3329  6025    13747.0000    22972.0345   817587   67.11%
     33    35    22966.5960  5966    13747.0000    22972.0345   836596   67.11%
     42    38    22964.2236  6105    13747.0000    22972.0345   847744   67.11%
     44    40    22963.2236  6042    13747.0000    22972.0345   856942   67.11%
     46    42    22963.7554  6127    13747.0000    22972.0345   874244   67.11%
     47    43    22963.0509  5861    13747.0000    22972.0345   895601   67.11%
     48    44    22962.9556  5914    13747.0000    22972.0345   912406   67.11%
     49    45    22963.0509  5859    13747.0000    22972.0345   924302   67.11%
     50    46    22962.7004  5858    13747.0000    22972.0345   942206   67.11%
     51    47    22963.0336  5854    13747.0000    22972.0345   954226   67.11%
Elapsed time = 5748.75 sec. (1808537.40 ticks, tree = 18.23 MB, solutions = 17)
     52    48    22962.6813  5951    13747.0000    22972.0345   969301   67.11%
     53    49    22962.9724  6007    13747.0000    22972.0345   972574   67.11%
     54    50    22962.6170  5928    13747.0000    22972.0345   977679   67.11%
     55    51    22962.6643  5978    13747.0000    22972.0345   991765   67.11%
     56    52    22962.4686  6101    13747.0000    22972.0345   997786   67.11%
     57    53    22962.5561  6066    13747.0000    22972.0345  1003999   67.11%
     58    54    22962.5561  6070    13747.0000    22972.0345  1004873   67.11%
     60    56    22962.1857  6023    13747.0000    22972.0345  1017935   67.11%
     61    57    22961.9748  6214    13747.0000    22972.0345  1046657   67.11%
     62    58    22961.6282  6135    13747.0000    22972.0345  1059904   67.11%
Elapsed time = 6381.92 sec. (2017249.39 ticks, tree = 21.39 MB, solutions = 17)
     63    59    22961.5117  6065    13747.0000    22972.0345  1066538   67.11%
     65    61    22961.5117  6096    13747.0000    22972.0345  1067646   67.11%
     66    62    22961.5048  6076    13747.0000    22972.0345  1072864   67.11%
     67    63    22961.4094  6175    13747.0000    22972.0345  1082875   67.11%
     68    64    22961.3878  5963    13747.0000    22972.0345  1088341   67.11%
     70    66    22961.2409  5760    13747.0000    22972.0345  1095330   67.11%
     73    69    22961.0951  5732    13747.0000    22972.0345  1097112   67.11%
     77    73    22960.8044  5909    13747.0000    22972.0345  1110395   67.11%
     78    74    22960.5454  5940    13747.0000    22972.0345  1119545   67.11%
     79    75    22960.3535  5814    13747.0000    22972.0345  1127670   67.11%
Elapsed time = 6647.04 sec. (2111025.56 ticks, tree = 28.94 MB, solutions = 17)
     81    77    22959.7426  5890    13747.0000    22972.0345  1140657   67.11%
     82    78    22960.1976  5819    13747.0000    22972.0345  1148582   67.11%
     84    80    22960.1976  5971    13747.0000    22972.0345  1179735   67.11%
     86    82    22959.1976  5891    13747.0000    22972.0345  1215939   67.11%
     88    82    22958.7104  5890    13747.0000    22972.0345  1225379   67.11%
     90    82    22958.6532  5846    13747.0000    22972.0345  1226546   67.11%

GUB cover cuts applied:  2
Clique cuts applied:  62
Implied bound cuts applied:  164
Flow cuts applied:  2
Mixed integer rounding cuts applied:  1
Zero-half cuts applied:  1394
Gomory fractional cuts applied:  12

Root node processing (before b&c):
  Real time             = 3830.50 sec. (1155213.89 ticks)
Sequential b&c:
  Real time             = 3369.56 sec. (1133850.81 ticks)
                          ------------
Total (root+branch&cut) = 7200.06 sec. (2289064.70 ticks)
Solution is feasible.

---------------------
@@@ MIP_time_limit_feasible
>>> Benchmark mc2024_track1_014.cnf k 10 OPT 13747 TimeCost 7307.633544445038 TimeSolve 7227.648580789566 TimeRead 0.012248516082763672 TimeTrans 79.97271513938904
